(set-info :smt-lib-version 2.6)
(set-logic QF_BV)
(set-info :source |
 Patrice Godefroid, SAGE (systematic dynamic test generation)
 For more information: http://research.microsoft.com/en-us/um/people/pg/public_psfiles/ndss2008.pdf
|)
(set-info :category "industrial")
(set-info :status sat)
(declare-fun T4_31280 () (_ BitVec 32))
(declare-fun T4_2115543 () (_ BitVec 32))
(declare-fun T1_2115543 () (_ BitVec 8))
(declare-fun T1_2115544 () (_ BitVec 8))
(declare-fun T1_2115545 () (_ BitVec 8))
(declare-fun T1_2115546 () (_ BitVec 8))
(declare-fun T1_31280 () (_ BitVec 8))
(declare-fun T1_31281 () (_ BitVec 8))
(declare-fun T1_31282 () (_ BitVec 8))
(declare-fun T1_31283 () (_ BitVec 8))
(assert (and true (= T4_31280 (bvor (bvshl (bvor (bvshl (bvor (bvshl ((_ zero_extend 24) T1_31283) (_ bv8 32)) ((_ zero_extend 24) T1_31282)) (_ bv8 32)) ((_ zero_extend 24) T1_31281)) (_ bv8 32)) ((_ zero_extend 24) T1_31280))) (= T4_2115543 (bvor (bvshl (bvor (bvshl (bvor (bvshl ((_ zero_extend 24) T1_2115546) (_ bv8 32)) ((_ zero_extend 24) T1_2115545)) (_ bv8 32)) ((_ zero_extend 24) T1_2115544)) (_ bv8 32)) ((_ zero_extend 24) T1_2115543))) (not (= T4_2115543 T4_31280))))
(check-sat)
(exit)
